p cnf 225 1
225 0
w 1 0.304002
w 2 1 1
w 2 -1 0
w 3 2 0.927506
w 3 -2 0.163175
w 4 3 0.739012
w 4 -3 0.669874
w 5 4 0
w 5 -4 1
w 6 5 0
w 6 -5 1
w 7 6 0
w 7 -6 1
w 8 7 0
w 8 -7 1
w 9 8 0
w 9 -8 1
w 10 9 0
w 10 -9 1
w 11 10 0.0444537
w 11 -10 0.0607375
w 12 11 0
w 12 -11 1
w 13 12 1
w 13 -12 0
w 14 13 1
w 14 -13 0
w 15 14 0
w 15 -14 1
w 16 1 0
w 16 -1 1
w 17 16 2 0.0360912
w 17 16 -2 0.785957
w 17 -16 2 0.652223
w 17 -16 -2 0.775104
w 18 17 3 0
w 18 17 -3 0
w 18 -17 3 1
w 18 -17 -3 0
w 19 18 4 0.815346
w 19 18 -4 0.852849
w 19 -18 4 0.504014
w 19 -18 -4 0.551325
w 20 19 5 0
w 20 19 -5 0
w 20 -19 5 0
w 20 -19 -5 1
w 21 20 6 0
w 21 20 -6 1
w 21 -20 6 1
w 21 -20 -6 1
w 22 21 7 1
w 22 21 -7 0
w 22 -21 7 0
w 22 -21 -7 1
w 23 22 8 0.482018
w 23 22 -8 0.511067
w 23 -22 8 0.667545
w 23 -22 -8 0.134242
w 24 23 9 1
w 24 23 -9 1
w 24 -23 9 0
w 24 -23 -9 0
w 25 24 10 0.292877
w 25 24 -10 0.143765
w 25 -24 10 0.768138
w 25 -24 -10 0.796892
w 26 25 11 0
w 26 25 -11 1
w 26 -25 11 1
w 26 -25 -11 1
w 27 26 12 1
w 27 26 -12 1
w 27 -26 12 0
w 27 -26 -12 0
w 28 27 13 0.990584
w 28 27 -13 0.775165
w 28 -27 13 0.420356
w 28 -27 -13 0.465559
w 29 28 14 1
w 29 28 -14 0
w 29 -28 14 0
w 29 -28 -14 1
w 30 29 15 1
w 30 29 -15 0
w 30 -29 15 0
w 30 -29 -15 0
w 31 16 1
w 31 -16 0
w 32 31 17 0.0346449
w 32 31 -17 0.804973
w 32 -31 17 0.614947
w 32 -31 -17 0.89433
w 33 32 18 1
w 33 32 -18 0
w 33 -32 18 1
w 33 -32 -18 0
w 34 33 19 0
w 34 33 -19 0
w 34 -33 19 1
w 34 -33 -19 0
w 35 34 20 1
w 35 34 -20 1
w 35 -34 20 0
w 35 -34 -20 1
w 36 35 21 0.735347
w 36 35 -21 0.854975
w 36 -35 21 0.805878
w 36 -35 -21 0.998144
w 37 36 22 0
w 37 36 -22 1
w 37 -36 22 1
w 37 -36 -22 0
w 38 37 23 1
w 38 37 -23 0
w 38 -37 23 0
w 38 -37 -23 1
w 39 38 24 1
w 39 38 -24 0
w 39 -38 24 1
w 39 -38 -24 0
w 40 39 25 0.546586
w 40 39 -25 0.0554198
w 40 -39 25 0.108718
w 40 -39 -25 0.645347
w 41 40 26 0
w 41 40 -26 0
w 41 -40 26 0
w 41 -40 -26 1
w 42 41 27 0
w 42 41 -27 1
w 42 -41 27 0
w 42 -41 -27 1
w 43 42 28 0.207574
w 43 42 -28 0.101076
w 43 -42 28 0.60744
w 43 -42 -28 0.286315
w 44 43 29 1
w 44 43 -29 0
w 44 -43 29 1
w 44 -43 -29 1
w 45 44 30 0.335503
w 45 44 -30 0.683808
w 45 -44 30 0.0262139
w 45 -44 -30 0.299688
w 46 31 1
w 46 -31 0
w 47 46 32 0.111783
w 47 46 -32 0.941073
w 47 -46 32 0.49162
w 47 -46 -32 0.613735
w 48 47 33 0
w 48 47 -33 1
w 48 -47 33 1
w 48 -47 -33 1
w 49 48 34 0
w 49 48 -34 0
w 49 -48 34 1
w 49 -48 -34 0
w 50 49 35 0
w 50 49 -35 1
w 50 -49 35 0
w 50 -49 -35 0
w 51 50 36 0
w 51 50 -36 1
w 51 -50 36 1
w 51 -50 -36 1
w 52 51 37 1
w 52 51 -37 0
w 52 -51 37 1
w 52 -51 -37 1
w 53 52 38 1
w 53 52 -38 0
w 53 -52 38 0
w 53 -52 -38 1
w 54 53 39 0
w 54 53 -39 0
w 54 -53 39 1
w 54 -53 -39 1
w 55 54 40 0
w 55 54 -40 0
w 55 -54 40 1
w 55 -54 -40 1
w 56 55 41 0.857264
w 56 55 -41 0.884496
w 56 -55 41 0.883302
w 56 -55 -41 0.31692
w 57 56 42 0
w 57 56 -42 1
w 57 -56 42 1
w 57 -56 -42 0
w 58 57 43 1
w 58 57 -43 1
w 58 -57 43 0
w 58 -57 -43 1
w 59 58 44 0.875354
w 59 58 -44 0.720399
w 59 -58 44 0.729826
w 59 -58 -44 0.318022
w 60 59 45 0
w 60 59 -45 0
w 60 -59 45 1
w 60 -59 -45 1
w 61 46 1
w 61 -46 0
w 62 61 47 1
w 62 61 -47 0
w 62 -61 47 1
w 62 -61 -47 0
w 63 62 48 1
w 63 62 -48 0
w 63 -62 48 0
w 63 -62 -48 1
w 64 63 49 1
w 64 63 -49 1
w 64 -63 49 0
w 64 -63 -49 1
w 65 64 50 0
w 65 64 -50 1
w 65 -64 50 1
w 65 -64 -50 1
w 66 65 51 1
w 66 65 -51 0
w 66 -65 51 0
w 66 -65 -51 1
w 67 66 52 0
w 67 66 -52 0
w 67 -66 52 0
w 67 -66 -52 1
w 68 67 53 0
w 68 67 -53 1
w 68 -67 53 0
w 68 -67 -53 1
w 69 68 54 1
w 69 68 -54 1
w 69 -68 54 1
w 69 -68 -54 0
w 70 69 55 1
w 70 69 -55 1
w 70 -69 55 1
w 70 -69 -55 0
w 71 70 56 0.262816
w 71 70 -56 0.0672154
w 71 -70 56 0.649427
w 71 -70 -56 0.980132
w 72 71 57 0
w 72 71 -57 1
w 72 -71 57 1
w 72 -71 -57 1
w 73 72 58 0.235633
w 73 72 -58 0.0510433
w 73 -72 58 0.706987
w 73 -72 -58 0.665621
w 74 73 59 1
w 74 73 -59 1
w 74 -73 59 0
w 74 -73 -59 1
w 75 74 60 0.899752
w 75 74 -60 0.0871851
w 75 -74 60 0.274651
w 75 -74 -60 0.780755
w 76 61 1
w 76 -61 0
w 77 76 62 0
w 77 76 -62 1
w 77 -76 62 0
w 77 -76 -62 0
w 78 77 63 0.882336
w 78 77 -63 0.657696
w 78 -77 63 0.85157
w 78 -77 -63 0.14727
w 79 78 64 1
w 79 78 -64 0
w 79 -78 64 0
w 79 -78 -64 0
w 80 79 65 1
w 80 79 -65 0
w 80 -79 65 0
w 80 -79 -65 1
w 81 80 66 1
w 81 80 -66 1
w 81 -80 66 0
w 81 -80 -66 0
w 82 81 67 0
w 82 81 -67 1
w 82 -81 67 0
w 82 -81 -67 1
w 83 82 68 1
w 83 82 -68 0
w 83 -82 68 1
w 83 -82 -68 1
w 84 83 69 0.709481
w 84 83 -69 0.933168
w 84 -83 69 0.623973
w 84 -83 -69 0.85675
w 85 84 70 1
w 85 84 -70 1
w 85 -84 70 1
w 85 -84 -70 0
w 86 85 71 0.655606
w 86 85 -71 0.116292
w 86 -85 71 0.0308316
w 86 -85 -71 0.626562
w 87 86 72 0
w 87 86 -72 0
w 87 -86 72 0
w 87 -86 -72 1
w 88 87 73 0
w 88 87 -73 1
w 88 -87 73 1
w 88 -87 -73 0
w 89 88 74 0
w 89 88 -74 0
w 89 -88 74 1
w 89 -88 -74 1
w 90 89 75 0
w 90 89 -75 0
w 90 -89 75 1
w 90 -89 -75 1
w 91 76 0
w 91 -76 1
w 92 91 77 0
w 92 91 -77 0
w 92 -91 77 0
w 92 -91 -77 1
w 93 92 78 1
w 93 92 -78 0
w 93 -92 78 0
w 93 -92 -78 1
w 94 93 79 0.655105
w 94 93 -79 0.0681385
w 94 -93 79 0.573708
w 94 -93 -79 0.718439
w 95 94 80 1
w 95 94 -80 0
w 95 -94 80 0
w 95 -94 -80 1
w 96 95 81 0.93881
w 96 95 -81 0.520615
w 96 -95 81 0.929202
w 96 -95 -81 0.108706
w 97 96 82 0
w 97 96 -82 0
w 97 -96 82 0
w 97 -96 -82 1
w 98 97 83 0
w 98 97 -83 1
w 98 -97 83 1
w 98 -97 -83 1
w 99 98 84 0
w 99 98 -84 1
w 99 -98 84 1
w 99 -98 -84 1
w 100 99 85 0.176094
w 100 99 -85 0.198293
w 100 -99 85 0.527846
w 100 -99 -85 0.894533
w 101 100 86 1
w 101 100 -86 0
w 101 -100 86 0
w 101 -100 -86 0
w 102 101 87 0
w 102 101 -87 0
w 102 -101 87 0
w 102 -101 -87 1
w 103 102 88 0
w 103 102 -88 1
w 103 -102 88 0
w 103 -102 -88 1
w 104 103 89 0.703723
w 104 103 -89 0.0366097
w 104 -103 89 0.816622
w 104 -103 -89 0.415226
w 105 104 90 1
w 105 104 -90 0
w 105 -104 90 0
w 105 -104 -90 0
w 106 91 1
w 106 -91 0
w 107 106 92 0
w 107 106 -92 1
w 107 -106 92 1
w 107 -106 -92 1
w 108 107 93 1
w 108 107 -93 1
w 108 -107 93 0
w 108 -107 -93 1
w 109 108 94 0
w 109 108 -94 1
w 109 -108 94 0
w 109 -108 -94 1
w 110 109 95 0
w 110 109 -95 0
w 110 -109 95 0
w 110 -109 -95 1
w 111 110 96 0.454919
w 111 110 -96 0.298265
w 111 -110 96 0.812729
w 111 -110 -96 0.563514
w 112 111 97 0.200047
w 112 111 -97 0.802263
w 112 -111 97 0.372221
w 112 -111 -97 0.763459
w 113 112 98 0
w 113 112 -98 1
w 113 -112 98 1
w 113 -112 -98 0
w 114 113 99 0
w 114 113 -99 1
w 114 -113 99 0
w 114 -113 -99 0
w 115 114 100 0.10922
w 115 114 -100 0.649209
w 115 -114 100 0.291446
w 115 -114 -100 0.273663
w 116 115 101 0.627417
w 116 115 -101 0.0623358
w 116 -115 101 0.0620619
w 116 -115 -101 0.66711
w 117 116 102 0.00846196
w 117 116 -102 0.122029
w 117 -116 102 0.185884
w 117 -116 -102 0.821191
w 118 117 103 0
w 118 117 -103 1
w 118 -117 103 0
w 118 -117 -103 0
w 119 118 104 0.727112
w 119 118 -104 0.830392
w 119 -118 104 0.00609931
w 119 -118 -104 0.75233
w 120 119 105 0
w 120 119 -105 0
w 120 -119 105 0
w 120 -119 -105 1
w 121 106 1
w 121 -106 0
w 122 121 107 1
w 122 121 -107 0
w 122 -121 107 0
w 122 -121 -107 1
w 123 122 108 0
w 123 122 -108 1
w 123 -122 108 1
w 123 -122 -108 0
w 124 123 109 1
w 124 123 -109 1
w 124 -123 109 0
w 124 -123 -109 0
w 125 124 110 1
w 125 124 -110 0
w 125 -124 110 0
w 125 -124 -110 0
w 126 125 111 1
w 126 125 -111 0
w 126 -125 111 1
w 126 -125 -111 0
w 127 126 112 1
w 127 126 -112 1
w 127 -126 112 0
w 127 -126 -112 0
w 128 127 113 0
w 128 127 -113 1
w 128 -127 113 1
w 128 -127 -113 0
w 129 128 114 1
w 129 128 -114 0
w 129 -128 114 1
w 129 -128 -114 0
w 130 129 115 0
w 130 129 -115 0
w 130 -129 115 1
w 130 -129 -115 0
w 131 130 116 1
w 131 130 -116 1
w 131 -130 116 1
w 131 -130 -116 0
w 132 131 117 0.259725
w 132 131 -117 0.933024
w 132 -131 117 0.291847
w 132 -131 -117 0.504152
w 133 132 118 0
w 133 132 -118 0
w 133 -132 118 1
w 133 -132 -118 0
w 134 133 119 1
w 134 133 -119 0
w 134 -133 119 1
w 134 -133 -119 1
w 135 134 120 0.586411
w 135 134 -120 0.62199
w 135 -134 120 0.317621
w 135 -134 -120 0.327248
w 136 121 0
w 136 -121 1
w 137 136 122 0.430652
w 137 136 -122 0.972411
w 137 -136 122 0.977787
w 137 -136 -122 0.762014
w 138 137 123 0
w 138 137 -123 1
w 138 -137 123 1
w 138 -137 -123 0
w 139 138 124 0
w 139 138 -124 1
w 139 -138 124 0
w 139 -138 -124 1
w 140 139 125 0
w 140 139 -125 1
w 140 -139 125 0
w 140 -139 -125 1
w 141 140 126 0
w 141 140 -126 0
w 141 -140 126 0
w 141 -140 -126 1
w 142 141 127 0
w 142 141 -127 1
w 142 -141 127 0
w 142 -141 -127 1
w 143 142 128 1
w 143 142 -128 0
w 143 -142 128 1
w 143 -142 -128 0
w 144 143 129 0
w 144 143 -129 1
w 144 -143 129 1
w 144 -143 -129 0
w 145 144 130 1
w 145 144 -130 0
w 145 -144 130 1
w 145 -144 -130 1
w 146 145 131 1
w 146 145 -131 0
w 146 -145 131 0
w 146 -145 -131 1
w 147 146 132 1
w 147 146 -132 0
w 147 -146 132 1
w 147 -146 -132 1
w 148 147 133 0
w 148 147 -133 1
w 148 -147 133 0
w 148 -147 -133 0
w 149 148 134 0.523823
w 149 148 -134 0.527333
w 149 -148 134 0.630395
w 149 -148 -134 0.695363
w 150 149 135 1
w 150 149 -135 0
w 150 -149 135 1
w 150 -149 -135 0
w 151 136 0
w 151 -136 1
w 152 151 137 0.231828
w 152 151 -137 0.695407
w 152 -151 137 0.897271
w 152 -151 -137 0.73959
w 153 152 138 0.756157
w 153 152 -138 0.595644
w 153 -152 138 0.418319
w 153 -152 -138 0.04576
w 154 153 139 0
w 154 153 -139 1
w 154 -153 139 0
w 154 -153 -139 1
w 155 154 140 1
w 155 154 -140 1
w 155 -154 140 0
w 155 -154 -140 1
w 156 155 141 0.420594
w 156 155 -141 0.446178
w 156 -155 141 0.566969
w 156 -155 -141 0.717267
w 157 156 142 0
w 157 156 -142 1
w 157 -156 142 1
w 157 -156 -142 1
w 158 157 143 1
w 158 157 -143 1
w 158 -157 143 1
w 158 -157 -143 0
w 159 158 144 1
w 159 158 -144 1
w 159 -158 144 0
w 159 -158 -144 1
w 160 159 145 1
w 160 159 -145 1
w 160 -159 145 0
w 160 -159 -145 0
w 161 160 146 0
w 161 160 -146 1
w 161 -160 146 1
w 161 -160 -146 1
w 162 161 147 0.800299
w 162 161 -147 0.848533
w 162 -161 147 0.286534
w 162 -161 -147 0.367268
w 163 162 148 0
w 163 162 -148 0
w 163 -162 148 0
w 163 -162 -148 1
w 164 163 149 1
w 164 163 -149 0
w 164 -163 149 0
w 164 -163 -149 0
w 165 164 150 0.656735
w 165 164 -150 0.772211
w 165 -164 150 0.974352
w 165 -164 -150 0.767601
w 166 151 0
w 166 -151 1
w 167 166 152 1
w 167 166 -152 1
w 167 -166 152 1
w 167 -166 -152 0
w 168 167 153 1
w 168 167 -153 0
w 168 -167 153 0
w 168 -167 -153 0
w 169 168 154 1
w 169 168 -154 0
w 169 -168 154 0
w 169 -168 -154 1
w 170 169 155 0
w 170 169 -155 0
w 170 -169 155 1
w 170 -169 -155 0
w 171 170 156 1
w 171 170 -156 0
w 171 -170 156 1
w 171 -170 -156 1
w 172 171 157 1
w 172 171 -157 1
w 172 -171 157 0
w 172 -171 -157 1
w 173 172 158 0.0850588
w 173 172 -158 0.941293
w 173 -172 158 0.370773
w 173 -172 -158 0.734683
w 174 173 159 0.865308
w 174 173 -159 0.313001
w 174 -173 159 0.261281
w 174 -173 -159 0.200199
w 175 174 160 0
w 175 174 -160 0
w 175 -174 160 0
w 175 -174 -160 1
w 176 175 161 1
w 176 175 -161 0
w 176 -175 161 1
w 176 -175 -161 1
w 177 176 162 0.0146819
w 177 176 -162 0.484926
w 177 -176 162 0.279778
w 177 -176 -162 0.74678
w 178 177 163 0.775574
w 178 177 -163 0.246479
w 178 -177 163 0.00672715
w 178 -177 -163 0.30552
w 179 178 164 1
w 179 178 -164 0
w 179 -178 164 1
w 179 -178 -164 1
w 180 179 165 1
w 180 179 -165 0
w 180 -179 165 0
w 180 -179 -165 1
w 181 166 0.405192
w 181 -166 0.268592
w 182 181 167 0
w 182 181 -167 1
w 182 -181 167 1
w 182 -181 -167 0
w 183 182 168 0
w 183 182 -168 1
w 183 -182 168 0
w 183 -182 -168 0
w 184 183 169 0.974843
w 184 183 -169 0.848543
w 184 -183 169 0.754579
w 184 -183 -169 0.221322
w 185 184 170 0.0600988
w 185 184 -170 0.368611
w 185 -184 170 0.947056
w 185 -184 -170 0.306912
w 186 185 171 0.773525
w 186 185 -171 0.441042
w 186 -185 171 0.270042
w 186 -185 -171 0.912994
w 187 186 172 0.853611
w 187 186 -172 0.744082
w 187 -186 172 0.715643
w 187 -186 -172 0.258803
w 188 187 173 1
w 188 187 -173 0
w 188 -187 173 0
w 188 -187 -173 1
w 189 188 174 0.500117
w 189 188 -174 0.861694
w 189 -188 174 0.642617
w 189 -188 -174 0.728179
w 190 189 175 1
w 190 189 -175 1
w 190 -189 175 1
w 190 -189 -175 0
w 191 190 176 0.423668
w 191 190 -176 0.436299
w 191 -190 176 0.292954
w 191 -190 -176 0.370724
w 192 191 177 1
w 192 191 -177 1
w 192 -191 177 0
w 192 -191 -177 1
w 193 192 178 1
w 193 192 -178 1
w 193 -192 178 1
w 193 -192 -178 0
w 194 193 179 0
w 194 193 -179 0
w 194 -193 179 0
w 194 -193 -179 1
w 195 194 180 1
w 195 194 -180 1
w 195 -194 180 0
w 195 -194 -180 0
w 196 181 0
w 196 -181 1
w 197 196 182 0.0320537
w 197 196 -182 0.241663
w 197 -196 182 0.148407
w 197 -196 -182 0.956397
w 198 197 183 1
w 198 197 -183 1
w 198 -197 183 1
w 198 -197 -183 0
w 199 198 184 1
w 199 198 -184 0
w 199 -198 184 1
w 199 -198 -184 1
w 200 199 185 0
w 200 199 -185 1
w 200 -199 185 0
w 200 -199 -185 0
w 201 200 186 0.308586
w 201 200 -186 0.953608
w 201 -200 186 0.964196
w 201 -200 -186 0.816554
w 202 201 187 1
w 202 201 -187 0
w 202 -201 187 1
w 202 -201 -187 1
w 203 202 188 1
w 203 202 -188 0
w 203 -202 188 1
w 203 -202 -188 1
w 204 203 189 0
w 204 203 -189 0
w 204 -203 189 1
w 204 -203 -189 1
w 205 204 190 1
w 205 204 -190 1
w 205 -204 190 0
w 205 -204 -190 0
w 206 205 191 0.610847
w 206 205 -191 0.990645
w 206 -205 191 0.114648
w 206 -205 -191 0.354855
w 207 206 192 0.987129
w 207 206 -192 0.663442
w 207 -206 192 0.797125
w 207 -206 -192 0.951326
w 208 207 193 1
w 208 207 -193 0
w 208 -207 193 0
w 208 -207 -193 1
w 209 208 194 1
w 209 208 -194 0
w 209 -208 194 0
w 209 -208 -194 0
w 210 209 195 1
w 210 209 -195 1
w 210 -209 195 0
w 210 -209 -195 0
w 211 196 1
w 211 -196 0
w 212 211 197 1
w 212 211 -197 1
w 212 -211 197 0
w 212 -211 -197 1
w 213 212 198 1
w 213 212 -198 1
w 213 -212 198 1
w 213 -212 -198 0
w 214 213 199 0
w 214 213 -199 0
w 214 -213 199 1
w 214 -213 -199 0
w 215 214 200 0.427074
w 215 214 -200 0.679328
w 215 -214 200 0.20806
w 215 -214 -200 0.886874
w 216 215 201 0.358682
w 216 215 -201 0.179208
w 216 -215 201 0.940045
w 216 -215 -201 0.381246
w 217 216 202 0.48674
w 217 216 -202 0.525105
w 217 -216 202 0.293522
w 217 -216 -202 0.833811
w 218 217 203 1
w 218 217 -203 1
w 218 -217 203 0
w 218 -217 -203 0
w 219 218 204 0.0761881
w 219 218 -204 0.302733
w 219 -218 204 0.618157
w 219 -218 -204 0.164942
w 220 219 205 1
w 220 219 -205 1
w 220 -219 205 1
w 220 -219 -205 0
w 221 220 206 1
w 221 220 -206 1
w 221 -220 206 0
w 221 -220 -206 0
w 222 221 207 0
w 222 221 -207 0
w 222 -221 207 0
w 222 -221 -207 1
w 223 222 208 1
w 223 222 -208 0
w 223 -222 208 0
w 223 -222 -208 1
w 224 223 209 1
w 224 223 -209 0
w 224 -223 209 0
w 224 -223 -209 0
w 225 224 210 0.495771
w 225 224 -210 0.0651183
w 225 -224 210 0.99714
w 225 -224 -210 0.622779